40 46
13 7
10 18
26 28
14 44
15 7
41 39.5
37 53.5
11 50.5
44 40.5
41 30.5
28 24.5
49 36.5
0 38
33 49
5 72
15 61
40 49
50 54
16 26
30 84.5
47 60.5
19 47.5
10 55.5
30 58.5
14 58.5
9 68.5
18 67
25 89
15 85
11 82
13 95
18 69
23 70
7 105.5
20 79.5
22 97.5
40 92.5
12 82.5
37 93.5
32 101.5
34 90
32 115
29 94
10 124
35 84
49 92
41 97
45 98.5
44 97.5
